\ENCODING=ISO-8859-1
\Problem name: 

Minimize
 obj1: 7 u0 + 2 u1 + 7 u2 + 210 u3 + 9 u4 + 31 u5 + 73 u6 + 5 u7 + 15 u8 + 5 u9
       + 19 u10 + 7 u11 + 63 u12 + 10 u13 + 14 u14 + 108 u15 + 5 u16 + 6 u17
       + 26 u18 + 5 u19 + 16 u20 + 5 u21 + 19 u22 + 17 u23 + u24 + 33 u25
       + 7 u26 + 28 u27 + 7 u28 + 123 u29 + 14 u30 + 8 u31 + 7 u32 + 235 u33
       + 10 u34 + 16 u35 + 4 u36 + 17 u37 + 14 u38 + 229 u39 + 24 u40 + 19 u41
       + 31 u42 + 10 u43 + 7 u44 + 5 u45 + 20 u46 + 10 u47 + 22 u48 + 29 u49
       + 25 u50 + 188 u51 + 14 u52 + 29 u53 + 13 u54 + 6 u55 + 16 u56 + 11 u57
       + 13 u58 + 47 u59 + 130 u60 + 6 u61 + 23 u62 + 12 u63 + 2 u64 + u65
       + 10 u66 + 34 u67 + 21 u68 + 19 u69 + 220 u70 + 21 u71 + 2 u72 + 12 u73
       + 27 u74 + 52 u75 + 14 u76 + 2 u77 + u78 + 3 u79 + 26 u80 + 49 u81
       + 5 u82 + 28 u83 + 150 u84 + 7 u85 + 205 u86 + 15 u87 + 5 u88 + 110 u89
       + 8 u90 + 42 u91 + 18 u92 + 4 u93 + 15 u94 + 46 u95 + 26 u96 + 3 u97
       + 131 u98 + 31 u99 + 4 u100 + 10 u101 + 58 u102 + 7 u103 + 12 u104
       + 298 u105 + 56 u106 + 49 u107 + 85 u108 + 16 u109 + 24 u110 + 27 u111
       + 194 u112 + 6 u113 + u114 + 96 u115 + 4 u116 + 3 u117 + 78 u118
       + 9 u119 + 20 u120 + 7 u121 + 9 u122 + 5 u123 + 125 u124 + 51 u125
       + 31 u126 + 17 u127 + 117 u128 + 2 u129 + 7 u130 + 3 u131 + 11 u132
       + 4 u133 + 8 u134 + 20 u135 + 51 u136 + 5 u137 + 38 u138 + 13 u139
       + 3 u140 + 12 u141 + 72 u142 + 43 u143 + 25 u144 + 11 u145 + 8 u146
       + 10 u147 + 4 u148 + 20 u149 + 17 u150 + 22 u151 + 35 u152 + 192 u153
       + 21 u154 + 17 u155 + 139 u156 + 37 u157 + 27 u158 + 35 u159 + 14 u160
       + 30 u161 + 40 u162 + 9 u163 + 10 u164 + 61 u165 + 10 u166 + 185 u167
       + 9 u168 + 4 u169 + 12 u170 + 43 u171 + 10 u172 + 37 u173 + 11 u174
       + 29 u175 + 4 u176 + 76 u177 + 99 u178 + 8 u179 + u180 + 5 u181 + 9 u182
       + 72 u183 + 82 u184 + 32 u185 + 18 u186 + 111 u187 + 3 u188 + 4 u189
       + 6 u190 + u191 + 178 u192 + 2 u193 + 21 u194 + 11 u195 + 10 u196
       + 21 u197 + 5 u198 + 54 u199 + 8 u200 + 27 u201 + 38 u202 + 132 u203
       + 21 u204 + 25 u205 + 4 u206 + 67 u207 + 4 u208 + 13 u209 + 13 u210
       + 80 u211 + 75 u212 + 3 u213 + 16 u214 + 6 u215 + 18 u216 + 13 u217
       + 6 u218 + 20 u219 + 6 u220 + 179 u221 + 102 u222 + 10 u223 + 3 u224
       + 123 u225 + 28 u226 + 114 u227 + 11 u228 + 7 u229 + 10 u230 + 47 u231
       + 58 u232 + 21 u233 + 5 u234 + 19 u235 + 47 u236 + 64 u237 + 9 u238
       + 14 u239 + 65 u240 + 10 u241 + 2 u242 + 25 u243 + 15 u244 + 2 u245
       + 61 u246 + 23 u247 + 66 u248 + u249 + u250 + 154 u251 + 6 u252 + 6 u253
       + 19 u254 + 32 u255 + 109 u256 + 32 u257 + 12 u258 + 15 u259 + 73 u260
       + 6 u261 + 10 u262 + 15 u263 + 5 u264 + 27 u265 + 46 u266 + 64 u267
       + 17 u268 + 46 u269 + 7 u270 + 5 u271 + 29 u272 + 15 u273 + 9 u274
       + 7 u275 + 116 u276 + 223 u277 + 16 u278 + 7 u279 + 4 u280 + 5 u281
       + 53 u282 + 5 u283 + 187 u284 + 13 u285 + 27 u286 + 17 u287 + 13 u288
       + 7 u289 + 301 u290 + 64 u291 + 5 u292 + 6 u293 + 3 u294 + 15 u295
       + 4 u296 + 4 u297 + 28 u298 + 24 u299 + 10 u300 + 103 u301 + 8 u302
       + u303 + 43 u304 + 17 u305 + 98 u306 + 42 u307 + 6 u308 + 7 u309
       + 27 u310 + 44 u311 + 11 u312 + 12 u313 + 24 u314 + 18 u315 + 68 u316
       + 12 u317 + 2 u318 + 17 u319 + 13 u320 + 4 u321 + 44 u322 + 28 u323
       + 8 u324 + 10 u325 + 13 u326 + 54 u327 + 71 u328 + 21 u329 + 14 u330
       + 206 u331 + 38 u332 + 38 u333 + 45 u334 + 15 u335 + 82 u336 + 12 u337
       + 8 u338 + 17 u339 + 10 u340 + 27 u341 + 5 u342 + 6 u343 + 4 u344
       + 58 u345 + 20 u346 + 11 u347 + 22 u348 + 26 u349 + 27 u350 + 25 u351
       + 16 u352 + 8 u353 + 85 u354 + 216 u355 + 21 u356 + 3 u357 + 2 u358
       + 44 u359 + u360 + 59 u361 + 21 u362 + 19 u363 + 32 u364 + 18 u365
       + 80 u366 + 17 u367 + 25 u368 + 5 u369 + 46 u370 + 20 u371 + 12 u372
       + 13 u373 + 8 u374 + 40 u375 + 18 u376 + 34 u377 + 8 u378 + 6 u379
       + 20 u380 + 38 u381 + 14 u382 + 15 u383 + 39 u384 + 5 u385 + 5 u386
       + 29 u387 + 4 u388 + 12 u389 + 256 u390 + 110 u391 + 27 u392 + 9 u393
       + 11 u394 + 577 u395 + 8 u396 + 6 u397 + 3 u398 + 17 u399
Subject To
 c1:   s0 + s1 + s2 + s3 + s4 + s5 + s6 + s7 + s8 + s9 + s10 + s11 + s12 + s13
       + s14 + s15 + s16 + s17 + s18 + s19 + s20 + s21 + s22 + s23 + s24 + s25
       + s26 + s27 + s28 + s29 + s30 + s31 + s32 + s33 + s34 + s35 + s36 + s37
       + s38 + s39 + s40 + s41 + s42 + s43 + s44 + s45 + s46 + s47 + s48 + s49
       + s50 + s51 + s52 + s53 + s54 + s55 + s56 + s57 + s58 + s59 + s60 + s61
       + s62 + s63 + s64 + s65 + s66 + s67 + s68 + s69 + s70 + s71 + s72 + s73
       + s74 + s75 + s76 + s77 + s78 + s79 + s80 + s81 + s82 + s83 + s84 + s85
       + s86 + s87 + s88 + s89 + s90 + s91 + s92 + s93 + s94 + s95 + s96 + s97
       + s98 + s99  = 25
 c2:   u0 + s23 >= 1
 c3:   u0 + s28 >= 1
 c4:   u0 + s32 >= 1
 c5:   u0 + s53 >= 1
 c6:   u0 + s54 >= 1
 c7:   u0 + s96 >= 1
 c8:   u1 + s23 >= 1
 c9:   u1 + s28 >= 1
 c10:  u1 + s47 >= 1
 c11:  u1 + s54 >= 1
 c12:  u1 + s96 >= 1
 c13:  u2 + s30 >= 1
 c14:  u3  = 0
 c15:  u4 + s28 >= 1
 c16:  u4 + s29 >= 1
 c17:  u4 + s53 >= 1
 c18:  u5 + s68 >= 1
 c19:  u6 + s32 >= 1
 c20:  u6 + s53 >= 1
 c21:  u7 + s69 >= 1
 c22:  u8  = 0
 c23:  u9 + s67 >= 1
 c24:  u10 + s51 >= 1
 c25:  u10 + s97 >= 1
 c26:  u11  = 0
 c27:  u12  = 0
 c28:  u13 + s3 >= 1
 c29:  u13 + s24 >= 1
 c30:  u13 + s84 >= 1
 c31:  u14  = 0
 c32:  u15 + s94 >= 1
 c33:  u16 + s0 >= 1
 c34:  u16 + s75 >= 1
 c35:  u17  = 0
 c36:  u18 + s26 >= 1
 c37:  u18 + s43 >= 1
 c38:  u18 + s45 >= 1
 c39:  u18 + s52 >= 1
 c40:  u18 + s86 >= 1
 c41:  u19 + s13 >= 1
 c42:  u20 + s17 >= 1
 c43:  u20 + s74 >= 1
 c44:  u21 + s19 >= 1
 c45:  u21 + s41 >= 1
 c46:  u21 + s47 >= 1
 c47:  u21 + s54 >= 1
 c48:  u21 + s96 >= 1
 c49:  u22 + s82 >= 1
 c50:  u23  = 0
 c51:  u24 + s36 >= 1
 c52:  u25 + s59 >= 1
 c53:  u26 + s5 >= 1
 c54:  u26 + s16 >= 1
 c55:  u27 + s32 >= 1
 c56:  u27 + s53 >= 1
 c57:  u28 + s2 >= 1
 c58:  u28 + s68 >= 1
 c59:  u29 + s97 >= 1
 c60:  u30 + s30 >= 1
 c61:  u31 + s20 >= 1
 c62:  u31 + s51 >= 1
 c63:  u32 + s19 >= 1
 c64:  u32 + s41 >= 1
 c65:  u32 + s47 >= 1
 c66:  u32 + s88 >= 1
 c67:  u33 + s10 >= 1
 c68:  u33 + s31 >= 1
 c69:  u33 + s50 >= 1
 c70:  u33 + s62 >= 1
 c71:  u33 + s83 >= 1
 c72:  u34  = 0
 c73:  u35 + s25 >= 1
 c74:  u36 + s30 >= 1
 c75:  u36 + s88 >= 1
 c76:  u37 + s21 >= 1
 c77:  u37 + s58 >= 1
 c78:  u37 + s74 >= 1
 c79:  u38 + s51 >= 1
 c80:  u38 + s71 >= 1
 c81:  u38 + s89 >= 1
 c82:  u39 + s68 >= 1
 c83:  u39 + s80 >= 1
 c84:  u40 + s15 >= 1
 c85:  u40 + s38 >= 1
 c86:  u40 + s40 >= 1
 c87:  u41 + s8 >= 1
 c88:  u41 + s56 >= 1
 c89:  u42 + s14 >= 1
 c90:  u42 + s16 >= 1
 c91:  u42 + s42 >= 1
 c92:  u43 + s30 >= 1
 c93:  u43 + s88 >= 1
 c94:  u44 + s2 >= 1
 c95:  u44 + s55 >= 1
 c96:  u45 + s23 >= 1
 c97:  u45 + s28 >= 1
 c98:  u45 + s32 >= 1
 c99:  u45 + s53 >= 1
 c100: u45 + s54 >= 1
 c101: u45 + s96 >= 1
 c102: u46 + s32 >= 1
 c103: u47 + s43 >= 1
 c104: u47 + s45 >= 1
 c105: u47 + s86 >= 1
 c106: u48  = 0
 c107: u49 + s67 >= 1
 c108: u50 + s58 >= 1
 c109: u51 + s13 >= 1
 c110: u51 + s22 >= 1
 c111: u51 + s87 >= 1
 c112: u52 + s34 >= 1
 c113: u52 + s59 >= 1
 c114: u53 + s2 >= 1
 c115: u53 + s52 >= 1
 c116: u53 + s55 >= 1
 c117: u54  = 0
 c118: u55 + s5 >= 1
 c119: u55 + s16 >= 1
 c120: u56 + s29 >= 1
 c121: u56 + s71 >= 1
 c122: u56 + s72 >= 1
 c123: u56 + s89 >= 1
 c124: u57 + s27 >= 1
 c125: u58 + s28 >= 1
 c126: u58 + s29 >= 1
 c127: u58 + s53 >= 1
 c128: u58 + s72 >= 1
 c129: u59 + s61 >= 1
 c130: u59 + s82 >= 1
 c131: u59 + s91 >= 1
 c132: u60 + s1 >= 1
 c133: u60 + s61 >= 1
 c134: u60 + s91 >= 1
 c135: u60 + s98 >= 1
 c136: u61 + s20 >= 1
 c137: u61 + s59 >= 1
 c138: u61 + s81 >= 1
 c139: u62 + s23 >= 1
 c140: u62 + s28 >= 1
 c141: u62 + s71 >= 1
 c142: u63 + s5 >= 1
 c143: u63 + s18 >= 1
 c144: u64 + s16 >= 1
 c145: u65 + s39 >= 1
 c146: u66 + s11 >= 1
 c147: u66 + s65 >= 1
 c148: u66 + s95 >= 1
 c149: u67  = 0
 c150: u68 + s0 >= 1
 c151: u68 + s10 >= 1
 c152: u68 + s50 >= 1
 c153: u68 + s75 >= 1
 c154: u69 + s3 >= 1
 c155: u69 + s84 >= 1
 c156: u70 + s64 >= 1
 c157: u70 + s70 >= 1
 c158: u70 + s76 >= 1
 c159: u70 + s78 >= 1
 c160: u71 + s17 >= 1
 c161: u72 + s17 >= 1
 c162: u73  = 0
 c163: u74 + s20 >= 1
 c164: u74 + s51 >= 1
 c165: u75 + s0 >= 1
 c166: u75 + s82 >= 1
 c167: u76 + s30 >= 1
 c168: u77 + s34 >= 1
 c169: u77 + s91 >= 1
 c170: u78  = 0
 c171: u79 + s1 >= 1
 c172: u79 + s97 >= 1
 c173: u79 + s98 >= 1
 c174: u80 + s27 >= 1
 c175: u81  = 0
 c176: u82 + s10 >= 1
 c177: u83  = 0
 c178: u84 + s5 >= 1
 c179: u84 + s16 >= 1
 c180: u85 + s3 >= 1
 c181: u85 + s98 >= 1
 c182: u86  = 0
 c183: u87 + s18 >= 1
 c184: u88  = 0
 c185: u89 + s58 >= 1
 c186: u89 + s97 >= 1
 c187: u90 + s49 >= 1
 c188: u90 + s71 >= 1
 c189: u90 + s89 >= 1
 c190: u91  = 0
 c191: u92 + s10 >= 1
 c192: u92 + s75 >= 1
 c193: u93  = 0
 c194: u94 + s14 >= 1
 c195: u94 + s27 >= 1
 c196: u94 + s42 >= 1
 c197: u95 + s69 >= 1
 c198: u95 + s93 >= 1
 c199: u96 + s34 >= 1
 c200: u96 + s59 >= 1
 c201: u97 + s9 >= 1
 c202: u97 + s15 >= 1
 c203: u97 + s40 >= 1
 c204: u98 + s47 >= 1
 c205: u98 + s54 >= 1
 c206: u98 + s96 >= 1
 c207: u99 + s2 >= 1
 c208: u99 + s55 >= 1
 c209: u100  = 0
 c210: u101 + s36 >= 1
 c211: u101 + s94 >= 1
 c212: u102  = 0
 c213: u103 + s43 >= 1
 c214: u103 + s45 >= 1
 c215: u103 + s86 >= 1
 c216: u104 + s17 >= 1
 c217: u104 + s74 >= 1
 c218: u105  = 0
 c219: u106 + s3 >= 1
 c220: u106 + s21 >= 1
 c221: u107 + s32 >= 1
 c222: u107 + s79 >= 1
 c223: u107 + s96 >= 1
 c224: u108 + s6 >= 1
 c225: u109 + s6 >= 1
 c226: u109 + s7 >= 1
 c227: u109 + s65 >= 1
 c228: u110 + s32 >= 1
 c229: u111 + s1 >= 1
 c230: u111 + s61 >= 1
 c231: u111 + s91 >= 1
 c232: u111 + s98 >= 1
 c233: u112 + s6 >= 1
 c234: u112 + s7 >= 1
 c235: u112 + s65 >= 1
 c236: u113 + s32 >= 1
 c237: u113 + s53 >= 1
 c238: u114  = 0
 c239: u115 + s12 >= 1
 c240: u115 + s92 >= 1
 c241: u116 + s39 >= 1
 c242: u116 + s92 >= 1
 c243: u117 + s79 >= 1
 c244: u118 + s11 >= 1
 c245: u118 + s45 >= 1
 c246: u118 + s86 >= 1
 c247: u119 + s85 >= 1
 c248: u120 + s17 >= 1
 c249: u120 + s21 >= 1
 c250: u120 + s74 >= 1
 c251: u121 + s49 >= 1
 c252: u121 + s71 >= 1
 c253: u121 + s89 >= 1
 c254: u122 + s2 >= 1
 c255: u122 + s55 >= 1
 c256: u123  = 0
 c257: u124 + s60 >= 1
 c258: u124 + s66 >= 1
 c259: u125 + s0 >= 1
 c260: u125 + s82 >= 1
 c261: u126 + s17 >= 1
 c262: u127 + s0 >= 1
 c263: u127 + s31 >= 1
 c264: u127 + s50 >= 1
 c265: u127 + s75 >= 1
 c266: u128 + s10 >= 1
 c267: u128 + s31 >= 1
 c268: u128 + s50 >= 1
 c269: u128 + s62 >= 1
 c270: u128 + s83 >= 1
 c271: u129 + s43 >= 1
 c272: u129 + s45 >= 1
 c273: u129 + s86 >= 1
 c274: u130 + s87 >= 1
 c275: u131 + s68 >= 1
 c276: u131 + s80 >= 1
 c277: u132 + s20 >= 1
 c278: u132 + s34 >= 1
 c279: u133 + s1 >= 1
 c280: u133 + s3 >= 1
 c281: u133 + s98 >= 1
 c282: u134 + s8 >= 1
 c283: u134 + s56 >= 1
 c284: u135 + s37 >= 1
 c285: u135 + s85 >= 1
 c286: u136  = 0
 c287: u137 + s32 >= 1
 c288: u137 + s53 >= 1
 c289: u138 + s13 >= 1
 c290: u139 + s2 >= 1
 c291: u139 + s55 >= 1
 c292: u140 + s24 >= 1
 c293: u141 + s39 >= 1
 c294: u142  = 0
 c295: u143 + s35 >= 1
 c296: u143 + s68 >= 1
 c297: u143 + s77 >= 1
 c298: u143 + s80 >= 1
 c299: u144 + s2 >= 1
 c300: u144 + s68 >= 1
 c301: u145 + s48 >= 1
 c302: u145 + s63 >= 1
 c303: u146  = 0
 c304: u147 + s24 >= 1
 c305: u148  = 0
 c306: u149 + s2 >= 1
 c307: u149 + s52 >= 1
 c308: u149 + s55 >= 1
 c309: u150 + s6 >= 1
 c310: u150 + s7 >= 1
 c311: u151 + s52 >= 1
 c312: u151 + s68 >= 1
 c313: u152 + s6 >= 1
 c314: u152 + s7 >= 1
 c315: u152 + s65 >= 1
 c316: u152 + s95 >= 1
 c317: u153 + s47 >= 1
 c318: u153 + s54 >= 1
 c319: u153 + s96 >= 1
 c320: u154 + s43 >= 1
 c321: u154 + s45 >= 1
 c322: u154 + s86 >= 1
 c323: u155  = 0
 c324: u156 + s23 >= 1
 c325: u156 + s28 >= 1
 c326: u156 + s53 >= 1
 c327: u157 + s67 >= 1
 c328: u157 + s81 >= 1
 c329: u157 + s85 >= 1
 c330: u158  = 0
 c331: u159 + s35 >= 1
 c332: u159 + s77 >= 1
 c333: u159 + s80 >= 1
 c334: u160 + s8 >= 1
 c335: u160 + s56 >= 1
 c336: u161 + s24 >= 1
 c337: u162 + s73 >= 1
 c338: u163 + s4 >= 1
 c339: u163 + s12 >= 1
 c340: u163 + s39 >= 1
 c341: u163 + s92 >= 1
 c342: u164  = 0
 c343: u165 + s56 >= 1
 c344: u166 + s25 >= 1
 c345: u166 + s57 >= 1
 c346: u167 + s29 >= 1
 c347: u167 + s53 >= 1
 c348: u167 + s72 >= 1
 c349: u168 + s64 >= 1
 c350: u168 + s70 >= 1
 c351: u168 + s76 >= 1
 c352: u168 + s78 >= 1
 c353: u169 + s94 >= 1
 c354: u170 + s6 >= 1
 c355: u170 + s7 >= 1
 c356: u170 + s99 >= 1
 c357: u171  = 0
 c358: u172 + s4 >= 1
 c359: u172 + s64 >= 1
 c360: u172 + s76 >= 1
 c361: u172 + s93 >= 1
 c362: u173 + s2 >= 1
 c363: u174  = 0
 c364: u175 + s13 >= 1
 c365: u175 + s22 >= 1
 c366: u175 + s87 >= 1
 c367: u176 + s42 >= 1
 c368: u176 + s73 >= 1
 c369: u177 + s30 >= 1
 c370: u178 + s4 >= 1
 c371: u178 + s39 >= 1
 c372: u178 + s64 >= 1
 c373: u178 + s76 >= 1
 c374: u179 + s37 >= 1
 c375: u179 + s85 >= 1
 c376: u180 + s10 >= 1
 c377: u180 + s62 >= 1
 c378: u180 + s83 >= 1
 c379: u181 + s21 >= 1
 c380: u181 + s58 >= 1
 c381: u182 + s43 >= 1
 c382: u182 + s45 >= 1
 c383: u182 + s86 >= 1
 c384: u183 + s9 >= 1
 c385: u183 + s15 >= 1
 c386: u183 + s40 >= 1
 c387: u184 + s70 >= 1
 c388: u184 + s76 >= 1
 c389: u184 + s78 >= 1
 c390: u185 + s30 >= 1
 c391: u186  = 0
 c392: u187 + s35 >= 1
 c393: u187 + s60 >= 1
 c394: u187 + s66 >= 1
 c395: u187 + s77 >= 1
 c396: u187 + s80 >= 1
 c397: u188 + s10 >= 1
 c398: u188 + s62 >= 1
 c399: u189 + s27 >= 1
 c400: u189 + s42 >= 1
 c401: u190 + s97 >= 1
 c402: u191 + s8 >= 1
 c403: u192 + s23 >= 1
 c404: u192 + s28 >= 1
 c405: u192 + s49 >= 1
 c406: u192 + s71 >= 1
 c407: u193 + s59 >= 1
 c408: u193 + s67 >= 1
 c409: u193 + s81 >= 1
 c410: u193 + s85 >= 1
 c411: u194 + s14 >= 1
 c412: u194 + s27 >= 1
 c413: u194 + s42 >= 1
 c414: u195 + s39 >= 1
 c415: u195 + s64 >= 1
 c416: u195 + s76 >= 1
 c417: u196 + s48 >= 1
 c418: u197 + s30 >= 1
 c419: u197 + s88 >= 1
 c420: u198 + s48 >= 1
 c421: u198 + s63 >= 1
 c422: u199 + s2 >= 1
 c423: u199 + s52 >= 1
 c424: u199 + s55 >= 1
 c425: u200  = 0
 c426: u201 + s67 >= 1
 c427: u201 + s81 >= 1
 c428: u201 + s85 >= 1
 c429: u202  = 0
 c430: u203 + s61 >= 1
 c431: u203 + s98 >= 1
 c432: u204 + s49 >= 1
 c433: u205 + s6 >= 1
 c434: u205 + s7 >= 1
 c435: u205 + s55 >= 1
 c436: u205 + s65 >= 1
 c437: u206 + s58 >= 1
 c438: u207  = 0
 c439: u208 + s8 >= 1
 c440: u208 + s56 >= 1
 c441: u209 + s33 >= 1
 c442: u209 + s44 >= 1
 c443: u210  = 0
 c444: u211 + s23 >= 1
 c445: u211 + s28 >= 1
 c446: u211 + s47 >= 1
 c447: u211 + s54 >= 1
 c448: u211 + s96 >= 1
 c449: u212 + s30 >= 1
 c450: u212 + s58 >= 1
 c451: u213 + s43 >= 1
 c452: u213 + s45 >= 1
 c453: u213 + s86 >= 1
 c454: u214 + s20 >= 1
 c455: u214 + s51 >= 1
 c456: u214 + s89 >= 1
 c457: u215 + s20 >= 1
 c458: u215 + s34 >= 1
 c459: u215 + s59 >= 1
 c460: u216  = 0
 c461: u217 + s70 >= 1
 c462: u218  = 0
 c463: u219 + s24 >= 1
 c464: u220 + s42 >= 1
 c465: u220 + s73 >= 1
 c466: u221  = 0
 c467: u222 + s15 >= 1
 c468: u222 + s40 >= 1
 c469: u223 + s30 >= 1
 c470: u223 + s41 >= 1
 c471: u223 + s88 >= 1
 c472: u224 + s9 >= 1
 c473: u224 + s40 >= 1
 c474: u225  = 0
 c475: u226  = 0
 c476: u227 + s4 >= 1
 c477: u227 + s64 >= 1
 c478: u227 + s76 >= 1
 c479: u227 + s78 >= 1
 c480: u228  = 0
 c481: u229 + s30 >= 1
 c482: u230 + s26 >= 1
 c483: u230 + s52 >= 1
 c484: u231  = 0
 c485: u232 + s45 >= 1
 c486: u232 + s50 >= 1
 c487: u232 + s62 >= 1
 c488: u232 + s83 >= 1
 c489: u232 + s86 >= 1
 c490: u233 + s63 >= 1
 c491: u234 + s34 >= 1
 c492: u234 + s61 >= 1
 c493: u234 + s91 >= 1
 c494: u234 + s98 >= 1
 c495: u235 + s79 >= 1
 c496: u236 + s57 >= 1
 c497: u237 + s78 >= 1
 c498: u238 + s6 >= 1
 c499: u238 + s7 >= 1
 c500: u238 + s65 >= 1
 c501: u238 + s90 >= 1
 c502: u238 + s95 >= 1
 c503: u238 + s99 >= 1
 c504: u239 + s24 >= 1
 c505: u240 + s41 >= 1
 c506: u240 + s47 >= 1
 c507: u240 + s54 >= 1
 c508: u240 + s96 >= 1
 c509: u241 + s67 >= 1
 c510: u242 + s94 >= 1
 c511: u243 + s9 >= 1
 c512: u243 + s15 >= 1
 c513: u243 + s40 >= 1
 c514: u244 + s22 >= 1
 c515: u244 + s87 >= 1
 c516: u245 + s48 >= 1
 c517: u246 + s70 >= 1
 c518: u246 + s78 >= 1
 c519: u247 + s33 >= 1
 c520: u247 + s44 >= 1
 c521: u248 + s42 >= 1
 c522: u248 + s73 >= 1
 c523: u249 + s38 >= 1
 c524: u250 + s10 >= 1
 c525: u250 + s62 >= 1
 c526: u250 + s83 >= 1
 c527: u251 + s69 >= 1
 c528: u252 + s2 >= 1
 c529: u253 + s82 >= 1
 c530: u254 + s23 >= 1
 c531: u254 + s28 >= 1
 c532: u254 + s47 >= 1
 c533: u254 + s54 >= 1
 c534: u254 + s96 >= 1
 c535: u255 + s10 >= 1
 c536: u255 + s62 >= 1
 c537: u256 + s15 >= 1
 c538: u257  = 0
 c539: u258 + s2 >= 1
 c540: u258 + s68 >= 1
 c541: u259 + s56 >= 1
 c542: u260 + s2 >= 1
 c543: u260 + s55 >= 1
 c544: u261 + s74 >= 1
 c545: u262 + s9 >= 1
 c546: u263 + s21 >= 1
 c547: u263 + s58 >= 1
 c548: u263 + s74 >= 1
 c549: u264 + s1 >= 1
 c550: u264 + s3 >= 1
 c551: u264 + s98 >= 1
 c552: u265 + s5 >= 1
 c553: u265 + s16 >= 1
 c554: u265 + s18 >= 1
 c555: u266 + s22 >= 1
 c556: u266 + s87 >= 1
 c557: u267 + s5 >= 1
 c558: u267 + s16 >= 1
 c559: u267 + s18 >= 1
 c560: u268 + s4 >= 1
 c561: u268 + s64 >= 1
 c562: u268 + s92 >= 1
 c563: u268 + s93 >= 1
 c564: u269 + s2 >= 1
 c565: u269 + s55 >= 1
 c566: u270 + s1 >= 1
 c567: u270 + s98 >= 1
 c568: u271 + s35 >= 1
 c569: u271 + s60 >= 1
 c570: u271 + s66 >= 1
 c571: u271 + s77 >= 1
 c572: u272 + s49 >= 1
 c573: u272 + s71 >= 1
 c574: u273  = 0
 c575: u274 + s0 >= 1
 c576: u274 + s75 >= 1
 c577: u275 + s24 >= 1
 c578: u275 + s84 >= 1
 c579: u276 + s26 >= 1
 c580: u276 + s31 >= 1
 c581: u276 + s43 >= 1
 c582: u276 + s45 >= 1
 c583: u276 + s50 >= 1
 c584: u276 + s86 >= 1
 c585: u277 + s24 >= 1
 c586: u277 + s84 >= 1
 c587: u278 + s23 >= 1
 c588: u278 + s28 >= 1
 c589: u278 + s32 >= 1
 c590: u278 + s53 >= 1
 c591: u279 + s36 >= 1
 c592: u279 + s94 >= 1
 c593: u280 + s23 >= 1
 c594: u280 + s28 >= 1
 c595: u280 + s47 >= 1
 c596: u280 + s54 >= 1
 c597: u280 + s96 >= 1
 c598: u281 + s11 >= 1
 c599: u281 + s65 >= 1
 c600: u282 + s26 >= 1
 c601: u282 + s31 >= 1
 c602: u283 + s69 >= 1
 c603: u284 + s45 >= 1
 c604: u285 + s11 >= 1
 c605: u285 + s90 >= 1
 c606: u285 + s95 >= 1
 c607: u285 + s99 >= 1
 c608: u286 + s10 >= 1
 c609: u286 + s62 >= 1
 c610: u286 + s83 >= 1
 c611: u287  = 0
 c612: u288 + s12 >= 1
 c613: u288 + s39 >= 1
 c614: u288 + s92 >= 1
 c615: u289  = 0
 c616: u290 + s11 >= 1
 c617: u290 + s43 >= 1
 c618: u291 + s79 >= 1
 c619: u292 + s94 >= 1
 c620: u293  = 0
 c621: u294 + s2 >= 1
 c622: u295 + s24 >= 1
 c623: u295 + s84 >= 1
 c624: u296 + s48 >= 1
 c625: u296 + s63 >= 1
 c626: u297 + s2 >= 1
 c627: u297 + s55 >= 1
 c628: u298 + s82 >= 1
 c629: u299 + s67 >= 1
 c630: u300 + s14 >= 1
 c631: u300 + s16 >= 1
 c632: u300 + s73 >= 1
 c633: u301 + s14 >= 1
 c634: u301 + s27 >= 1
 c635: u301 + s42 >= 1
 c636: u302 + s15 >= 1
 c637: u303 + s56 >= 1
 c638: u304 + s22 >= 1
 c639: u304 + s87 >= 1
 c640: u305 + s43 >= 1
 c641: u305 + s52 >= 1
 c642: u305 + s55 >= 1
 c643: u306 + s76 >= 1
 c644: u306 + s78 >= 1
 c645: u307  = 0
 c646: u308 + s0 >= 1
 c647: u308 + s75 >= 1
 c648: u308 + s82 >= 1
 c649: u309 + s20 >= 1
 c650: u309 + s59 >= 1
 c651: u310 + s61 >= 1
 c652: u310 + s82 >= 1
 c653: u311 + s3 >= 1
 c654: u312  = 0
 c655: u313 + s23 >= 1
 c656: u313 + s28 >= 1
 c657: u313 + s53 >= 1
 c658: u314 + s29 >= 1
 c659: u314 + s71 >= 1
 c660: u314 + s89 >= 1
 c661: u315  = 0
 c662: u316 + s4 >= 1
 c663: u316 + s64 >= 1
 c664: u316 + s76 >= 1
 c665: u316 + s93 >= 1
 c666: u317  = 0
 c667: u318 + s15 >= 1
 c668: u318 + s38 >= 1
 c669: u319 + s7 >= 1
 c670: u319 + s11 >= 1
 c671: u319 + s65 >= 1
 c672: u319 + s95 >= 1
 c673: u320 + s1 >= 1
 c674: u320 + s97 >= 1
 c675: u321 + s3 >= 1
 c676: u321 + s21 >= 1
 c677: u321 + s74 >= 1
 c678: u322 + s3 >= 1
 c679: u322 + s17 >= 1
 c680: u322 + s74 >= 1
 c681: u322 + s84 >= 1
 c682: u323 + s48 >= 1
 c683: u323 + s63 >= 1
 c684: u324 + s34 >= 1
 c685: u324 + s61 >= 1
 c686: u324 + s82 >= 1
 c687: u324 + s91 >= 1
 c688: u325 + s38 >= 1
 c689: u326 + s68 >= 1
 c690: u326 + s80 >= 1
 c691: u327 + s6 >= 1
 c692: u327 + s7 >= 1
 c693: u327 + s55 >= 1
 c694: u327 + s65 >= 1
 c695: u328 + s69 >= 1
 c696: u329 + s17 >= 1
 c697: u329 + s74 >= 1
 c698: u330 + s10 >= 1
 c699: u330 + s31 >= 1
 c700: u330 + s50 >= 1
 c701: u330 + s62 >= 1
 c702: u330 + s83 >= 1
 c703: u331  = 0
 c704: u332 + s43 >= 1
 c705: u333 + s69 >= 1
 c706: u334 + s41 >= 1
 c707: u334 + s88 >= 1
 c708: u335 + s1 >= 1
 c709: u335 + s34 >= 1
 c710: u335 + s91 >= 1
 c711: u335 + s98 >= 1
 c712: u336  = 0
 c713: u337 + s34 >= 1
 c714: u338 + s24 >= 1
 c715: u338 + s84 >= 1
 c716: u339 + s24 >= 1
 c717: u339 + s35 >= 1
 c718: u339 + s77 >= 1
 c719: u339 + s84 >= 1
 c720: u340 + s15 >= 1
 c721: u340 + s40 >= 1
 c722: u341 + s24 >= 1
 c723: u342  = 0
 c724: u343 + s8 >= 1
 c725: u344 + s6 >= 1
 c726: u344 + s7 >= 1
 c727: u344 + s55 >= 1
 c728: u344 + s65 >= 1
 c729: u345 + s35 >= 1
 c730: u345 + s60 >= 1
 c731: u345 + s66 >= 1
 c732: u345 + s77 >= 1
 c733: u346 + s0 >= 1
 c734: u346 + s82 >= 1
 c735: u347 + s46 >= 1
 c736: u348 + s10 >= 1
 c737: u349 + s94 >= 1
 c738: u350 + s37 >= 1
 c739: u351 + s46 >= 1
 c740: u352 + s60 >= 1
 c741: u352 + s66 >= 1
 c742: u353 + s37 >= 1
 c743: u353 + s85 >= 1
 c744: u354 + s9 >= 1
 c745: u354 + s15 >= 1
 c746: u354 + s40 >= 1
 c747: u355 + s10 >= 1
 c748: u355 + s75 >= 1
 c749: u356 + s13 >= 1
 c750: u356 + s67 >= 1
 c751: u357 + s49 >= 1
 c752: u358  = 0
 c753: u359  = 0
 c754: u360 + s6 >= 1
 c755: u360 + s7 >= 1
 c756: u361 + s3 >= 1
 c757: u361 + s84 >= 1
 c758: u362 + s1 >= 1
 c759: u362 + s98 >= 1
 c760: u363 + s48 >= 1
 c761: u364 + s18 >= 1
 c762: u365 + s32 >= 1
 c763: u365 + s79 >= 1
 c764: u366 + s9 >= 1
 c765: u366 + s15 >= 1
 c766: u366 + s40 >= 1
 c767: u367 + s27 >= 1
 c768: u368 + s14 >= 1
 c769: u368 + s16 >= 1
 c770: u368 + s73 >= 1
 c771: u369  = 0
 c772: u370 + s0 >= 1
 c773: u370 + s82 >= 1
 c774: u371  = 0
 c775: u372 + s33 >= 1
 c776: u372 + s44 >= 1
 c777: u372 + s93 >= 1
 c778: u373 + s24 >= 1
 c779: u373 + s84 >= 1
 c780: u374 + s39 >= 1
 c781: u374 + s92 >= 1
 c782: u375 + s4 >= 1
 c783: u375 + s64 >= 1
 c784: u375 + s76 >= 1
 c785: u375 + s93 >= 1
 c786: u376 + s5 >= 1
 c787: u376 + s16 >= 1
 c788: u377 + s60 >= 1
 c789: u377 + s66 >= 1
 c790: u378  = 0
 c791: u379  = 0
 c792: u380 + s34 >= 1
 c793: u381 + s24 >= 1
 c794: u381 + s35 >= 1
 c795: u381 + s77 >= 1
 c796: u381 + s84 >= 1
 c797: u382 + s2 >= 1
 c798: u382 + s55 >= 1
 c799: u383 + s17 >= 1
 c800: u384 + s9 >= 1
 c801: u385 + s20 >= 1
 c802: u385 + s59 >= 1
 c803: u386 + s15 >= 1
 c804: u386 + s40 >= 1
 c805: u387 + s5 >= 1
 c806: u387 + s16 >= 1
 c807: u388 + s14 >= 1
 c808: u388 + s16 >= 1
 c809: u388 + s73 >= 1
 c810: u389 + s17 >= 1
 c811: u390 + s13 >= 1
 c812: u391 + s45 >= 1
 c813: u391 + s86 >= 1
 c814: u392 + s3 >= 1
 c815: u392 + s84 >= 1
 c816: u393 + s4 >= 1
 c817: u393 + s64 >= 1
 c818: u393 + s93 >= 1
 c819: u394 + s70 >= 1
 c820: u394 + s76 >= 1
 c821: u394 + s78 >= 1
 c822: u395 + s82 >= 1
 c823: u396 + s73 >= 1
 c824: u397 + s2 >= 1
 c825: u397 + s52 >= 1
 c826: u397 + s55 >= 1
 c827: u398 + s22 >= 1
 c828: u398 + s87 >= 1
 c829: u399 + s32 >= 1
 c830: u399 + s53 >= 1
 c831: s0 <= 1
 c832: s1 <= 1
 c833: s2 <= 1
 c834: s3 <= 1
 c835: s4 <= 1
 c836: s5 <= 1
 c837: s6 <= 0
 c838: s7 <= 1
 c839: s8 <= 1
 c840: s9 <= 1
 c841: s10 <= 1
 c842: s11 <= 1
 c843: s12 <= 1
 c844: s13 <= 0
 c845: s14 <= 1
 c846: s15 <= 1
 c847: s16 <= 1
 c848: s17 <= 1
 c849: s18 <= 1
 c850: s19 <= 1
 c851: s20 <= 1
 c852: s21 <= 1
 c853: s22 <= 0
 c854: s23 <= 1
 c855: s24 <= 1
 c856: s25 <= 1
 c857: s26 <= 0
 c858: s27 <= 1
 c859: s28 <= 0
 c860: s29 <= 1
 c861: s30 <= 1
 c862: s31 <= 0
 c863: s32 <= 0
 c864: s33 <= 1
 c865: s34 <= 0
 c866: s35 <= 1
 c867: s36 <= 1
 c868: s37 <= 0
 c869: s38 <= 0
 c870: s39 <= 1
 c871: s40 <= 0
 c872: s41 <= 0
 c873: s42 <= 1
 c874: s43 <= 1
 c875: s44 <= 1
 c876: s45 <= 1
 c877: s46 <= 0
 c878: s47 <= 0
 c879: s48 <= 1
 c880: s49 <= 0
 c881: s50 <= 1
 c882: s51 <= 1
 c883: s52 <= 1
 c884: s53 <= 1
 c885: s54 <= 1
 c886: s55 <= 1
 c887: s56 <= 1
 c888: s57 <= 0
 c889: s58 <= 1
 c890: s59 <= 1
 c891: s60 <= 1
 c892: s61 <= 1
 c893: s62 <= 1
 c894: s63 <= 1
 c895: s64 <= 0
 c896: s65 <= 1
 c897: s66 <= 1
 c898: s67 <= 1
 c899: s68 <= 1
 c900: s69 <= 1
 c901: s70 <= 1
 c902: s71 <= 1
 c903: s72 <= 0
 c904: s73 <= 1
 c905: s74 <= 0
 c906: s75 <= 0
 c907: s76 <= 1
 c908: s77 <= 1
 c909: s78 <= 1
 c910: s79 <= 1
 c911: s80 <= 1
 c912: s81 <= 1
 c913: s82 <= 1
 c914: s83 <= 1
 c915: s84 <= 1
 c916: s85 <= 0
 c917: s86 <= 1
 c918: s87 <= 1
 c919: s88 <= 1
 c920: s89 <= 1
 c921: s90 <= 0
 c922: s91 <= 1
 c923: s92 <= 1
 c924: s93 <= 1
 c925: s94 <= 1
 c926: s95 <= 1
 c927: s96 <= 1
 c928: s97 <= 0
 c929: s98 <= 0
 c930: s99 <= 0
Bounds
 0 <= u0 <= 1
 0 <= u1 <= 1
 0 <= u2 <= 1
 0 <= u3 <= 1
 0 <= u4 <= 1
 0 <= u5 <= 1
 0 <= u6 <= 1
 0 <= u7 <= 1
 0 <= u8 <= 1
 0 <= u9 <= 1
 0 <= u10 <= 1
 0 <= u11 <= 1
 0 <= u12 <= 1
 0 <= u13 <= 1
 0 <= u14 <= 1
 0 <= u15 <= 1
 0 <= u16 <= 1
 0 <= u17 <= 1
 0 <= u18 <= 1
 0 <= u19 <= 1
 0 <= u20 <= 1
 0 <= u21 <= 1
 0 <= u22 <= 1
 0 <= u23 <= 1
 0 <= u24 <= 1
 0 <= u25 <= 1
 0 <= u26 <= 1
 0 <= u27 <= 1
 0 <= u28 <= 1
 0 <= u29 <= 1
 0 <= u30 <= 1
 0 <= u31 <= 1
 0 <= u32 <= 1
 0 <= u33 <= 1
 0 <= u34 <= 1
 0 <= u35 <= 1
 0 <= u36 <= 1
 0 <= u37 <= 1
 0 <= u38 <= 1
 0 <= u39 <= 1
 0 <= u40 <= 1
 0 <= u41 <= 1
 0 <= u42 <= 1
 0 <= u43 <= 1
 0 <= u44 <= 1
 0 <= u45 <= 1
 0 <= u46 <= 1
 0 <= u47 <= 1
 0 <= u48 <= 1
 0 <= u49 <= 1
 0 <= u50 <= 1
 0 <= u51 <= 1
 0 <= u52 <= 1
 0 <= u53 <= 1
 0 <= u54 <= 1
 0 <= u55 <= 1
 0 <= u56 <= 1
 0 <= u57 <= 1
 0 <= u58 <= 1
 0 <= u59 <= 1
 0 <= u60 <= 1
 0 <= u61 <= 1
 0 <= u62 <= 1
 0 <= u63 <= 1
 0 <= u64 <= 1
 0 <= u65 <= 1
 0 <= u66 <= 1
 0 <= u67 <= 1
 0 <= u68 <= 1
 0 <= u69 <= 1
 0 <= u70 <= 1
 0 <= u71 <= 1
 0 <= u72 <= 1
 0 <= u73 <= 1
 0 <= u74 <= 1
 0 <= u75 <= 1
 0 <= u76 <= 1
 0 <= u77 <= 1
 0 <= u78 <= 1
 0 <= u79 <= 1
 0 <= u80 <= 1
 0 <= u81 <= 1
 0 <= u82 <= 1
 0 <= u83 <= 1
 0 <= u84 <= 1
 0 <= u85 <= 1
 0 <= u86 <= 1
 0 <= u87 <= 1
 0 <= u88 <= 1
 0 <= u89 <= 1
 0 <= u90 <= 1
 0 <= u91 <= 1
 0 <= u92 <= 1
 0 <= u93 <= 1
 0 <= u94 <= 1
 0 <= u95 <= 1
 0 <= u96 <= 1
 0 <= u97 <= 1
 0 <= u98 <= 1
 0 <= u99 <= 1
 0 <= u100 <= 1
 0 <= u101 <= 1
 0 <= u102 <= 1
 0 <= u103 <= 1
 0 <= u104 <= 1
 0 <= u105 <= 1
 0 <= u106 <= 1
 0 <= u107 <= 1
 0 <= u108 <= 1
 0 <= u109 <= 1
 0 <= u110 <= 1
 0 <= u111 <= 1
 0 <= u112 <= 1
 0 <= u113 <= 1
 0 <= u114 <= 1
 0 <= u115 <= 1
 0 <= u116 <= 1
 0 <= u117 <= 1
 0 <= u118 <= 1
 0 <= u119 <= 1
 0 <= u120 <= 1
 0 <= u121 <= 1
 0 <= u122 <= 1
 0 <= u123 <= 1
 0 <= u124 <= 1
 0 <= u125 <= 1
 0 <= u126 <= 1
 0 <= u127 <= 1
 0 <= u128 <= 1
 0 <= u129 <= 1
 0 <= u130 <= 1
 0 <= u131 <= 1
 0 <= u132 <= 1
 0 <= u133 <= 1
 0 <= u134 <= 1
 0 <= u135 <= 1
 0 <= u136 <= 1
 0 <= u137 <= 1
 0 <= u138 <= 1
 0 <= u139 <= 1
 0 <= u140 <= 1
 0 <= u141 <= 1
 0 <= u142 <= 1
 0 <= u143 <= 1
 0 <= u144 <= 1
 0 <= u145 <= 1
 0 <= u146 <= 1
 0 <= u147 <= 1
 0 <= u148 <= 1
 0 <= u149 <= 1
 0 <= u150 <= 1
 0 <= u151 <= 1
 0 <= u152 <= 1
 0 <= u153 <= 1
 0 <= u154 <= 1
 0 <= u155 <= 1
 0 <= u156 <= 1
 0 <= u157 <= 1
 0 <= u158 <= 1
 0 <= u159 <= 1
 0 <= u160 <= 1
 0 <= u161 <= 1
 0 <= u162 <= 1
 0 <= u163 <= 1
 0 <= u164 <= 1
 0 <= u165 <= 1
 0 <= u166 <= 1
 0 <= u167 <= 1
 0 <= u168 <= 1
 0 <= u169 <= 1
 0 <= u170 <= 1
 0 <= u171 <= 1
 0 <= u172 <= 1
 0 <= u173 <= 1
 0 <= u174 <= 1
 0 <= u175 <= 1
 0 <= u176 <= 1
 0 <= u177 <= 1
 0 <= u178 <= 1
 0 <= u179 <= 1
 0 <= u180 <= 1
 0 <= u181 <= 1
 0 <= u182 <= 1
 0 <= u183 <= 1
 0 <= u184 <= 1
 0 <= u185 <= 1
 0 <= u186 <= 1
 0 <= u187 <= 1
 0 <= u188 <= 1
 0 <= u189 <= 1
 0 <= u190 <= 1
 0 <= u191 <= 1
 0 <= u192 <= 1
 0 <= u193 <= 1
 0 <= u194 <= 1
 0 <= u195 <= 1
 0 <= u196 <= 1
 0 <= u197 <= 1
 0 <= u198 <= 1
 0 <= u199 <= 1
 0 <= u200 <= 1
 0 <= u201 <= 1
 0 <= u202 <= 1
 0 <= u203 <= 1
 0 <= u204 <= 1
 0 <= u205 <= 1
 0 <= u206 <= 1
 0 <= u207 <= 1
 0 <= u208 <= 1
 0 <= u209 <= 1
 0 <= u210 <= 1
 0 <= u211 <= 1
 0 <= u212 <= 1
 0 <= u213 <= 1
 0 <= u214 <= 1
 0 <= u215 <= 1
 0 <= u216 <= 1
 0 <= u217 <= 1
 0 <= u218 <= 1
 0 <= u219 <= 1
 0 <= u220 <= 1
 0 <= u221 <= 1
 0 <= u222 <= 1
 0 <= u223 <= 1
 0 <= u224 <= 1
 0 <= u225 <= 1
 0 <= u226 <= 1
 0 <= u227 <= 1
 0 <= u228 <= 1
 0 <= u229 <= 1
 0 <= u230 <= 1
 0 <= u231 <= 1
 0 <= u232 <= 1
 0 <= u233 <= 1
 0 <= u234 <= 1
 0 <= u235 <= 1
 0 <= u236 <= 1
 0 <= u237 <= 1
 0 <= u238 <= 1
 0 <= u239 <= 1
 0 <= u240 <= 1
 0 <= u241 <= 1
 0 <= u242 <= 1
 0 <= u243 <= 1
 0 <= u244 <= 1
 0 <= u245 <= 1
 0 <= u246 <= 1
 0 <= u247 <= 1
 0 <= u248 <= 1
 0 <= u249 <= 1
 0 <= u250 <= 1
 0 <= u251 <= 1
 0 <= u252 <= 1
 0 <= u253 <= 1
 0 <= u254 <= 1
 0 <= u255 <= 1
 0 <= u256 <= 1
 0 <= u257 <= 1
 0 <= u258 <= 1
 0 <= u259 <= 1
 0 <= u260 <= 1
 0 <= u261 <= 1
 0 <= u262 <= 1
 0 <= u263 <= 1
 0 <= u264 <= 1
 0 <= u265 <= 1
 0 <= u266 <= 1
 0 <= u267 <= 1
 0 <= u268 <= 1
 0 <= u269 <= 1
 0 <= u270 <= 1
 0 <= u271 <= 1
 0 <= u272 <= 1
 0 <= u273 <= 1
 0 <= u274 <= 1
 0 <= u275 <= 1
 0 <= u276 <= 1
 0 <= u277 <= 1
 0 <= u278 <= 1
 0 <= u279 <= 1
 0 <= u280 <= 1
 0 <= u281 <= 1
 0 <= u282 <= 1
 0 <= u283 <= 1
 0 <= u284 <= 1
 0 <= u285 <= 1
 0 <= u286 <= 1
 0 <= u287 <= 1
 0 <= u288 <= 1
 0 <= u289 <= 1
 0 <= u290 <= 1
 0 <= u291 <= 1
 0 <= u292 <= 1
 0 <= u293 <= 1
 0 <= u294 <= 1
 0 <= u295 <= 1
 0 <= u296 <= 1
 0 <= u297 <= 1
 0 <= u298 <= 1
 0 <= u299 <= 1
 0 <= u300 <= 1
 0 <= u301 <= 1
 0 <= u302 <= 1
 0 <= u303 <= 1
 0 <= u304 <= 1
 0 <= u305 <= 1
 0 <= u306 <= 1
 0 <= u307 <= 1
 0 <= u308 <= 1
 0 <= u309 <= 1
 0 <= u310 <= 1
 0 <= u311 <= 1
 0 <= u312 <= 1
 0 <= u313 <= 1
 0 <= u314 <= 1
 0 <= u315 <= 1
 0 <= u316 <= 1
 0 <= u317 <= 1
 0 <= u318 <= 1
 0 <= u319 <= 1
 0 <= u320 <= 1
 0 <= u321 <= 1
 0 <= u322 <= 1
 0 <= u323 <= 1
 0 <= u324 <= 1
 0 <= u325 <= 1
 0 <= u326 <= 1
 0 <= u327 <= 1
 0 <= u328 <= 1
 0 <= u329 <= 1
 0 <= u330 <= 1
 0 <= u331 <= 1
 0 <= u332 <= 1
 0 <= u333 <= 1
 0 <= u334 <= 1
 0 <= u335 <= 1
 0 <= u336 <= 1
 0 <= u337 <= 1
 0 <= u338 <= 1
 0 <= u339 <= 1
 0 <= u340 <= 1
 0 <= u341 <= 1
 0 <= u342 <= 1
 0 <= u343 <= 1
 0 <= u344 <= 1
 0 <= u345 <= 1
 0 <= u346 <= 1
 0 <= u347 <= 1
 0 <= u348 <= 1
 0 <= u349 <= 1
 0 <= u350 <= 1
 0 <= u351 <= 1
 0 <= u352 <= 1
 0 <= u353 <= 1
 0 <= u354 <= 1
 0 <= u355 <= 1
 0 <= u356 <= 1
 0 <= u357 <= 1
 0 <= u358 <= 1
 0 <= u359 <= 1
 0 <= u360 <= 1
 0 <= u361 <= 1
 0 <= u362 <= 1
 0 <= u363 <= 1
 0 <= u364 <= 1
 0 <= u365 <= 1
 0 <= u366 <= 1
 0 <= u367 <= 1
 0 <= u368 <= 1
 0 <= u369 <= 1
 0 <= u370 <= 1
 0 <= u371 <= 1
 0 <= u372 <= 1
 0 <= u373 <= 1
 0 <= u374 <= 1
 0 <= u375 <= 1
 0 <= u376 <= 1
 0 <= u377 <= 1
 0 <= u378 <= 1
 0 <= u379 <= 1
 0 <= u380 <= 1
 0 <= u381 <= 1
 0 <= u382 <= 1
 0 <= u383 <= 1
 0 <= u384 <= 1
 0 <= u385 <= 1
 0 <= u386 <= 1
 0 <= u387 <= 1
 0 <= u388 <= 1
 0 <= u389 <= 1
 0 <= u390 <= 1
 0 <= u391 <= 1
 0 <= u392 <= 1
 0 <= u393 <= 1
 0 <= u394 <= 1
 0 <= u395 <= 1
 0 <= u396 <= 1
 0 <= u397 <= 1
 0 <= u398 <= 1
 0 <= u399 <= 1
 0 <= s0 <= 1
 0 <= s1 <= 1
 0 <= s2 <= 1
 0 <= s3 <= 1
 0 <= s4 <= 1
 0 <= s5 <= 1
 0 <= s6 <= 1
 0 <= s7 <= 1
 0 <= s8 <= 1
 0 <= s9 <= 1
 0 <= s10 <= 1
 0 <= s11 <= 1
 0 <= s12 <= 1
 0 <= s13 <= 1
 0 <= s14 <= 1
 0 <= s15 <= 1
 0 <= s16 <= 1
 0 <= s17 <= 1
 0 <= s18 <= 1
 0 <= s19 <= 1
 0 <= s20 <= 1
 0 <= s21 <= 1
 0 <= s22 <= 1
 0 <= s23 <= 1
 0 <= s24 <= 1
 0 <= s25 <= 1
 0 <= s26 <= 1
 0 <= s27 <= 1
 0 <= s28 <= 1
 0 <= s29 <= 1
 0 <= s30 <= 1
 0 <= s31 <= 1
 0 <= s32 <= 1
 0 <= s33 <= 1
 0 <= s34 <= 1
 0 <= s35 <= 1
 0 <= s36 <= 1
 0 <= s37 <= 1
 0 <= s38 <= 1
 0 <= s39 <= 1
 0 <= s40 <= 1
 0 <= s41 <= 1
 0 <= s42 <= 1
 0 <= s43 <= 1
 0 <= s44 <= 1
 0 <= s45 <= 1
 0 <= s46 <= 1
 0 <= s47 <= 1
 0 <= s48 <= 1
 0 <= s49 <= 1
 0 <= s50 <= 1
 0 <= s51 <= 1
 0 <= s52 <= 1
 0 <= s53 <= 1
 0 <= s54 <= 1
 0 <= s55 <= 1
 0 <= s56 <= 1
 0 <= s57 <= 1
 0 <= s58 <= 1
 0 <= s59 <= 1
 0 <= s60 <= 1
 0 <= s61 <= 1
 0 <= s62 <= 1
 0 <= s63 <= 1
 0 <= s64 <= 1
 0 <= s65 <= 1
 0 <= s66 <= 1
 0 <= s67 <= 1
 0 <= s68 <= 1
 0 <= s69 <= 1
 0 <= s70 <= 1
 0 <= s71 <= 1
 0 <= s72 <= 1
 0 <= s73 <= 1
 0 <= s74 <= 1
 0 <= s75 <= 1
 0 <= s76 <= 1
 0 <= s77 <= 1
 0 <= s78 <= 1
 0 <= s79 <= 1
 0 <= s80 <= 1
 0 <= s81 <= 1
 0 <= s82 <= 1
 0 <= s83 <= 1
 0 <= s84 <= 1
 0 <= s85 <= 1
 0 <= s86 <= 1
 0 <= s87 <= 1
 0 <= s88 <= 1
 0 <= s89 <= 1
 0 <= s90 <= 1
 0 <= s91 <= 1
 0 <= s92 <= 1
 0 <= s93 <= 1
 0 <= s94 <= 1
 0 <= s95 <= 1
 0 <= s96 <= 1
 0 <= s97 <= 1
 0 <= s98 <= 1
 0 <= s99 <= 1
Binaries
 u0  u1  u2  u3  u4  u5  u6  u7  u8  u9  u10  u11  u12  u13  u14  u15  u16 
 u17  u18  u19  u20  u21  u22  u23  u24  u25  u26  u27  u28  u29  u30  u31 
 u32  u33  u34  u35  u36  u37  u38  u39  u40  u41  u42  u43  u44  u45  u46 
 u47  u48  u49  u50  u51  u52  u53  u54  u55  u56  u57  u58  u59  u60  u61 
 u62  u63  u64  u65  u66  u67  u68  u69  u70  u71  u72  u73  u74  u75  u76 
 u77  u78  u79  u80  u81  u82  u83  u84  u85  u86  u87  u88  u89  u90  u91 
 u92  u93  u94  u95  u96  u97  u98  u99  u100  u101  u102  u103  u104  u105 
 u106  u107  u108  u109  u110  u111  u112  u113  u114  u115  u116  u117  u118 
 u119  u120  u121  u122  u123  u124  u125  u126  u127  u128  u129  u130  u131 
 u132  u133  u134  u135  u136  u137  u138  u139  u140  u141  u142  u143  u144 
 u145  u146  u147  u148  u149  u150  u151  u152  u153  u154  u155  u156  u157 
 u158  u159  u160  u161  u162  u163  u164  u165  u166  u167  u168  u169  u170 
 u171  u172  u173  u174  u175  u176  u177  u178  u179  u180  u181  u182  u183 
 u184  u185  u186  u187  u188  u189  u190  u191  u192  u193  u194  u195  u196 
 u197  u198  u199  u200  u201  u202  u203  u204  u205  u206  u207  u208  u209 
 u210  u211  u212  u213  u214  u215  u216  u217  u218  u219  u220  u221  u222 
 u223  u224  u225  u226  u227  u228  u229  u230  u231  u232  u233  u234  u235 
 u236  u237  u238  u239  u240  u241  u242  u243  u244  u245  u246  u247  u248 
 u249  u250  u251  u252  u253  u254  u255  u256  u257  u258  u259  u260  u261 
 u262  u263  u264  u265  u266  u267  u268  u269  u270  u271  u272  u273  u274 
 u275  u276  u277  u278  u279  u280  u281  u282  u283  u284  u285  u286  u287 
 u288  u289  u290  u291  u292  u293  u294  u295  u296  u297  u298  u299  u300 
 u301  u302  u303  u304  u305  u306  u307  u308  u309  u310  u311  u312  u313 
 u314  u315  u316  u317  u318  u319  u320  u321  u322  u323  u324  u325  u326 
 u327  u328  u329  u330  u331  u332  u333  u334  u335  u336  u337  u338  u339 
 u340  u341  u342  u343  u344  u345  u346  u347  u348  u349  u350  u351  u352 
 u353  u354  u355  u356  u357  u358  u359  u360  u361  u362  u363  u364  u365 
 u366  u367  u368  u369  u370  u371  u372  u373  u374  u375  u376  u377  u378 
 u379  u380  u381  u382  u383  u384  u385  u386  u387  u388  u389  u390  u391 
 u392  u393  u394  u395  u396  u397  u398  u399  s0  s1  s2  s3  s4  s5  s6 
 s7  s8  s9  s10  s11  s12  s13  s14  s15  s16  s17  s18  s19  s20  s21  s22 
 s23  s24  s25  s26  s27  s28  s29  s30  s31  s32  s33  s34  s35  s36  s37 
 s38  s39  s40  s41  s42  s43  s44  s45  s46  s47  s48  s49  s50  s51  s52 
 s53  s54  s55  s56  s57  s58  s59  s60  s61  s62  s63  s64  s65  s66  s67 
 s68  s69  s70  s71  s72  s73  s74  s75  s76  s77  s78  s79  s80  s81  s82 
 s83  s84  s85  s86  s87  s88  s89  s90  s91  s92  s93  s94  s95  s96  s97 
 s98  s99 
End
